
;this file is automatically generated: Tue Oct 27 10:35:00 CST 2020

;declarations generated

(declare-fun oclExcludes ( Int Int) Bool)
(declare-fun obj_7e448207_5361_4007_8dad_782226fb4d7b ( Int) Int)
(declare-fun Cardinality ( Int) Int)
(declare-fun type_49066cdb_f6f1_4918_958e_eb2a912d257a_Class8 ( Int) Bool)
(declare-fun oclSelect ( Int Bool) Int)
(declare-fun class22_Class22IntAttr2 ( Int) Int)
(declare-fun type_49066cdb_f6f1_4918_958e_eb2a912d257a_Class22 ( Int) Bool)
(declare-fun Enum0 ( Int) Int)
(declare-fun Enum1 ( Int) Int)
(declare-fun type_49066cdb_f6f1_4918_958e_eb2a912d257a_Class24 ( Int) Bool)
(declare-fun Enum2 ( Int) Int)
(declare-fun type_49066cdb_f6f1_4918_958e_eb2a912d257a_Class28 ( Int) Bool)
(declare-fun container_ ( Int) Int)
(declare-fun class22_Class22BoolAttr0 ( Int) Bool)
(declare-fun class22_Class22BoolAttr1 ( Int) Bool)
(declare-fun oclIncludes ( Int Int) Bool)
(declare-fun ObjAt ( Int Int) Int)

;formula(s) generated
(assert (forall ((p Int)) (=> ( type_49066cdb_f6f1_4918_958e_eb2a912d257a_Class22 p )  (and (>= ( Enum2 ( obj_7e448207_5361_4007_8dad_782226fb4d7b p )  )  0) (<= ( Enum2 ( obj_7e448207_5361_4007_8dad_782226fb4d7b p )  )  6)))))
(assert (! (or (forall ((v Int)) (=> (and (and (and ( type_49066cdb_f6f1_4918_958e_eb2a912d257a_Class22 v )  ( type_49066cdb_f6f1_4918_958e_eb2a912d257a_Class24 v ) ) ( type_49066cdb_f6f1_4918_958e_eb2a912d257a_Class8 v ) ) ( type_49066cdb_f6f1_4918_958e_eb2a912d257a_Class28 v ) ) ( class22_Class22BoolAttr0 ( obj_7e448207_5361_4007_8dad_782226fb4d7b v )  ) )) (forall ((v Int)) (=> (and (and (and ( type_49066cdb_f6f1_4918_958e_eb2a912d257a_Class22 v )  ( type_49066cdb_f6f1_4918_958e_eb2a912d257a_Class24 v ) ) ( type_49066cdb_f6f1_4918_958e_eb2a912d257a_Class8 v ) ) ( type_49066cdb_f6f1_4918_958e_eb2a912d257a_Class28 v ) ) (or (>= ( class22_Class22IntAttr2 ( obj_7e448207_5361_4007_8dad_782226fb4d7b v )  )  0) (or (forall ((v Int)) (=> (and (and (and ( type_49066cdb_f6f1_4918_958e_eb2a912d257a_Class22 v )  ( type_49066cdb_f6f1_4918_958e_eb2a912d257a_Class24 v ) ) ( type_49066cdb_f6f1_4918_958e_eb2a912d257a_Class8 v ) ) ( type_49066cdb_f6f1_4918_958e_eb2a912d257a_Class28 v ) ) ( class22_Class22BoolAttr1 ( obj_7e448207_5361_4007_8dad_782226fb4d7b v )  ) )) (forall ((v Int)) (=> (and (and (and ( type_49066cdb_f6f1_4918_958e_eb2a912d257a_Class22 v )  ( type_49066cdb_f6f1_4918_958e_eb2a912d257a_Class24 v ) ) ( type_49066cdb_f6f1_4918_958e_eb2a912d257a_Class8 v ) ) ( type_49066cdb_f6f1_4918_958e_eb2a912d257a_Class28 v ) ) (= ( Enum2 ( obj_7e448207_5361_4007_8dad_782226fb4d7b v )  )  2)))))))):named l0))
(assert (! (forall ((v Int)) (=> (and (and (and ( type_49066cdb_f6f1_4918_958e_eb2a912d257a_Class22 v )  ( type_49066cdb_f6f1_4918_958e_eb2a912d257a_Class24 v ) ) ( type_49066cdb_f6f1_4918_958e_eb2a912d257a_Class8 v ) ) ( type_49066cdb_f6f1_4918_958e_eb2a912d257a_Class28 v ) ) (and ( class22_Class22BoolAttr1 ( obj_7e448207_5361_4007_8dad_782226fb4d7b v )  )  (and (forall ((v Int)) (=> (and (and (and ( type_49066cdb_f6f1_4918_958e_eb2a912d257a_Class22 v )  ( type_49066cdb_f6f1_4918_958e_eb2a912d257a_Class24 v ) ) ( type_49066cdb_f6f1_4918_958e_eb2a912d257a_Class8 v ) ) ( type_49066cdb_f6f1_4918_958e_eb2a912d257a_Class28 v ) ) (>= ( class22_Class22IntAttr2 ( obj_7e448207_5361_4007_8dad_782226fb4d7b v )  )  1))) (forall ((v Int)) (=> (and (and (and ( type_49066cdb_f6f1_4918_958e_eb2a912d257a_Class22 v )  ( type_49066cdb_f6f1_4918_958e_eb2a912d257a_Class24 v ) ) ( type_49066cdb_f6f1_4918_958e_eb2a912d257a_Class8 v ) ) ( type_49066cdb_f6f1_4918_958e_eb2a912d257a_Class28 v ) ) ( class22_Class22BoolAttr0 ( obj_7e448207_5361_4007_8dad_782226fb4d7b v )  ) )))))):named l1))
(assert (exists ((o Int)) (and (and (and ( type_49066cdb_f6f1_4918_958e_eb2a912d257a_Class22 ( obj_7e448207_5361_4007_8dad_782226fb4d7b o )  )  ( type_49066cdb_f6f1_4918_958e_eb2a912d257a_Class24 ( obj_7e448207_5361_4007_8dad_782226fb4d7b o )  ) ) ( type_49066cdb_f6f1_4918_958e_eb2a912d257a_Class8 ( obj_7e448207_5361_4007_8dad_782226fb4d7b o )  ) ) ( type_49066cdb_f6f1_4918_958e_eb2a912d257a_Class28 ( obj_7e448207_5361_4007_8dad_782226fb4d7b o )  ) )))

 ;end of formula 